0 5 13 13 9 8 14 14 14 3 
5 0 13 10 4 12 16 15 18 2 
13 13 0 7 15 10 7 2 12 11 
13 10 7 0 10 15 14 9 18 10 
9 4 15 10 0 16 20 17 22 7 
8 12 10 15 16 0 7 10 6 9 
14 16 7 14 20 7 0 6 5 13 
14 15 2 9 17 10 6 0 11 13 
14 18 12 18 22 6 5 11 0 15 
3 2 11 10 7 9 13 13 15 0